# Objective value = 91
WA1n 0
WA1p 0
WA2n 0
WA2p 1
WB1n 0
WB1p 0
WB2n 0
WB2p 1
WC1n 0
WC1p 1
WD1n 0
WD1p 1
WE1n 0
WE1p 1
WF1n 3
WF1p 0
WF2n 1
WF2p 0
WG1n 0
WG1p 3
WG2n 0
WG2p 1
WH1n 8
WH1p 0
WI1n 0
WI1p 8
WJ1n 19
WJ1p 0
WJ2n 1
WJ2p 0
WK1n 0
WK1p 19
WK2n 0
WK2p 1
WT1n 0
WT1p 16
5 7
a 0
b 1
c 0
d 1
e 1
f 1
g 1
h 0
i 0
j 1
k 1
l 0
m 1
n 0
o 0
p 1
q 1
r 1
